NAME : local_13
TYPE : ATSP
DIMENSION : 6
EDGE_WEIGHT_TYPE : EXPLICIT
EDGE_WEIGHT_FORMAT : FULL_MATRIX
EDGE_WEIGHT_SECTION
0 10000000 10000000 10000000 147 471 
0 0 567 788 10000000 991 
0 567 0 398 10000000 10000000 
0 788 398 0 10000000 10000000 
0 10000000 10000000 10000000 0 347 
0 10000000 10000000 10000000 10000000 0 
EOF